ADDGRID = True
EDIFF = 1e-08
EDIFFG = -0.0001
ENCUT = 500.0
IBRION = 2
ISIF = 3
ISMEAR = 0
ISPIN = 1
ISTART = 0
LASPH = True
LCHARG = True
LREAL = False
LWAVE = True
NPAR = 4
NSW = 300
PREC = Accurate
SIGMA = 0.02
