Li1 Sb1 Te2
1.0
   2.1696847111761062    1.2526680520541464    7.0605008118513890
  -2.1696847111761062    1.2526680520541464    7.0605008118513890
   0.0000000000000000   -2.5053361041082929    7.0605008118513890
Li Sb Te
1 1 2
direct
   0.5000000000000000    0.5000000000000000    0.5000000000000000 Li
  -0.0000000000000000   -0.0000000000000000    0.0000000000000000 Sb
   0.7524130045454883    0.7524130045454883    0.7524130045454883 Te
   0.2475869954545045    0.2475869954545045    0.2475869954545045 Te
